p cnf 91 377
12 -31 57 -73 78 -79 0
1 3 24 59 -62 0
1 -42 45 46 60 0
3 4 19 -50 51 0
3 4 23 -50 -91 0
-4 52 78 82 84 0
7 9 -48 55 64 0
7 -47 -48 55 64 0
-8 42 46 -60 -87 0
10 20 21 -72 88 0
10 21 69 -72 88 0
12 13 57 78 -79 0
12 -30 -31 57 -73 0
21 22 -69 70 -77 0
38 53 -54 70 -72 0
13 57 58 -78 -79 0
57 58 -73 -78 -79 0
1 24 -32 60 0
2 3 24 56 0
2 -35 -61 -74 0
3 50 66 89 0
3 -51 68 -91 0
-3 -16 -50 68 0
-3 -19 -23 91 0
-3 50 -66 89 0
-5 -6 52 -63 0
-5 -63 78 84 0
-6 -35 36 82 0
7 8 9 64 0
7 9 45 -55 0
9 -43 45 46 0
10 -27 -28 -57 0
10 -28 -34 -57 0
11 12 -27 -28 0
11 27 -33 34 0
11 -31 57 -76 0
13 49 -51 67 0
13 67 -68 91 0
-13 -49 -86 90 0
-13 68 90 -91 0
-16 -19 -85 90 0
-17 22 -44 -77 0
-18 -19 -40 -43 0
-18 -19 -47 81 0
19 -65 74 -75 0
19 -75 -76 -80 0
-19 -23 -28 -34 0
-19 -25 -33 -65 0
-19 26 -27 57 0
-19 -61 -63 -84 0
20 22 41 -72 0
23 25 27 56 0
-25 -32 -59 -74 0
29 -30 -36 -37 0
36 37 62 63 0
-41 -53 70 -72 0
-45 46 -47 -48 0
-49 -51 -68 -91 0
58 -73 78 79 0
-8 -42 60 83 -87 0
1 42 60 -83 0
4 16 51 -68 0
-5 35 52 78 0
8 -46 -47 64 0
11 27 57 58 0
13 58 78 79 0
14 58 -78 79 0
-19 -23 -40 -60 0
-19 -23 -79 84 0
20 22 71 -72 0
21 69 83 -88 0
25 33 56 59 0
38 -54 -70 72 0
-38 41 53 -54 0
40 -43 46 87 0
69 70 -72 88 0
1 8 -10 0
1 8 -88 0
1 10 -32 0
-1 -3 50 0
-1 8 -70 0
-1 -24 -56 0
-1 -83 -88 0
2 5 -74 0
2 -59 74 0
-2 -6 61 0
-2 -6 -65 0
-3 -16 -19 0
-3 -23 -51 0
-3 -50 -66 0
-3 68 89 0
4 49 85 0
4 -67 -91 0
-4 -78 84 0
5 52 -78 0
-5 6 35 0
7 9 42 0
7 -47 55 0
-7 -8 -46 0
-7 -42 -60 0
-8 -9 -45 0
-9 -40 43 0
-10 -24 -26 0
-10 27 28 0
-10 28 -31 0
-11 -15 76 0
-11 25 30 0
12 26 -28 0
12 -78 79 0
13 -16 85 0
13 79 -84 0
13 -86 -90 0
13 -86 91 0
-13 -66 -67 0
-14 -15 80 0
15 29 30 0
-15 29 -31 0
-16 68 -89 0
17 18 39 0
-17 -18 -40 0
-17 -44 77 0
18 38 64 0
18 41 69 0
-18 -38 -64 0
-18 -39 -55 0
19 26 34 0
19 28 32 0
19 28 59 0
19 -33 -80 0
19 -65 -74 0
19 81 85 0
-19 -26 57 0
-19 -54 81 0
-19 86 -88 0
20 -38 71 0
-20 -21 70 0
-20 70 77 0
22 53 54 0
23 -36 37 0
23 40 -51 0
23 74 75 0
23 -75 -76 0
-23 25 65 0
-23 30 36 0
-24 -25 -59 0
-24 -35 59 0
25 -74 76 0
-26 28 31 0
27 -34 -57 0
29 -30 -73 0
-29 30 73 0
32 56 61 0
-32 56 -61 0
-35 -62 65 0
37 -63 82 0
38 39 54 0
41 48 -55 0
43 -44 77 0
-45 53 -55 0
46 47 -81 0
-46 47 55 0
48 55 -87 0
-50 -68 -91 0
51 -81 -85 0
-54 -72 -81 0
58 76 -80 0
-58 -76 -80 0
65 74 -82 0
-65 74 -75 0
66 67 -90 0
66 86 90 0
-66 -86 -89 0
1 -10 0
1 32 0
1 -43 0
1 -62 0
1 66 0
1 88 0
-1 -30 0
-1 -34 0
-1 36 0
-1 -36 0
-1 57 0
-1 59 0
2 3 0
2 6 0
2 56 0
2 59 0
2 65 0
-2 35 0
-2 61 0
-2 74 0
3 -9 0
3 -32 0
3 -33 0
3 50 0
3 -82 0
3 86 0
3 89 0
-3 35 0
-3 44 0
-3 51 0
-3 -67 0
-3 78 0
4 8 0
4 33 0
4 -47 0
4 -52 0
4 61 0
4 67 0
4 -73 0
4 78 0
4 -78 0
4 -82 0
4 -84 0
4 89 0
-4 33 0
-4 -84 0
5 35 0
5 -62 0
5 63 0
5 -82 0
5 -84 0
-5 -6 0
-5 -52 0
-5 61 0
-5 62 0
-5 74 0
6 -36 0
6 -37 0
6 -62 0
6 -82 0
-6 29 0
-6 59 0
7 40 0
-7 87 0
8 -45 0
8 48 0
8 83 0
-8 10 0
-8 47 0
-8 48 0
-8 -83 0
-8 87 0
-8 88 0
-8 -88 0
9 -48 0
9 55 0
9 64 0
-9 -46 0
-9 -48 0
10 -27 0
10 34 0
10 -34 0
10 -60 0
10 -70 0
10 -72 0
10 -77 0
-10 -11 0
-10 -12 0
-10 -34 0
-10 -70 0
-10 83 0
11 12 0
11 -12 0
11 15 0
-11 12 0
-11 31 0
-11 -57 0
-11 80 0
12 -26 0
12 34 0
12 -56 0
12 79 0
12 84 0
-12 31 0
-12 -57 0
-12 -58 0
-12 73 0
-12 78 0
-12 -78 0
-12 -79 0
13 -16 0
13 85 0
13 89 0
-13 27 0
-13 28 0
-13 -47 0
-13 -91 0
14 20 0
14 31 0
14 58 0
14 -58 0
14 79 0
14 -79 0
-14 15 0
-14 57 0
-14 78 0
-14 -78 0
-14 79 0
-14 -80 0
15 31 0
15 -57 0
15 -58 0
-15 58 0
16 -19 0
16 49 0
16 50 0
-16 -49 0
-16 -50 0
-16 85 0
-16 90 0
17 19 0
17 -20 0
17 40 0
17 44 0
17 -44 0
17 60 0
17 -72 0
17 -82 0
-17 -72 0
18 21 0
18 47 0
-18 -39 0
-18 -64 0
-18 81 0
19 21 0
19 -30 0
19 -33 0
19 -36 0
19 41 0
19 47 0
19 -51 0
19 54 0
19 56 0
19 57 0
19 64 0
19 68 0
19 69 0
19 -71 0
19 81 0
19 85 0
19 88 0
-19 -25 0
-19 30 0
-19 -38 0
-19 -43 0
-19 -53 0
-19 -55 0
-19 67 0
-19 79 0
-19 80 0
-19 -81 0
-19 -89 0
20 -22 0
20 -69 0
20 -70 0
20 -77 0
-20 -22 0
-20 72 0
-20 83 0
21 22 0
21 23 0
21 -77 0
-21 22 0
-21 -42 0
-21 -69 0
-21 -77 0
22 -41 0
22 -44 0
22 54 0
22 -72 0
-22 41 0
-22 -41 0
-22 -88 0
23 -30 0
23 32 0
